c turning on binary mode checking
c parsing input formula with 259840 variables and 1039934 clauses
c finished parsing, read 2899054 bytes from proof file
c detected empty clause; start verification via backward checking
c 5165 of 1039934 clauses in core                            
c 1591 of 115439 lemmas in core using 38933 resolution steps
c 0 RAT lemmas in core; 199 redundant literals in core lemmas
s VERIFIED
c verification time: 1.291 seconds
